50
150
100
99
98
97
97
95
92
92
91
90
89
88
87
84
84
83
82
80
80
78
77
77
76
76
75
72
70
68
67
64
63
61
61
60
58
57
57
56
55
49
49
48
40
40
37
35
32
31
31
30
